
Gurobi 10.0.1 (linux64) logging started Sun Nov 26 16:07:05 2023

Set parameter LogFile to value "ArtificialInstance/ExperimentV2/S3T5K3/AdRo/gurobiSpRo33.txt"
Gurobi Optimizer version 10.0.1 build v10.0.1rc0 (linux64)

CPU model: AMD EPYC 7H12 64-Core Processor, instruction set [SSE2|AVX|AVX2]
Thread count: 128 physical cores, 128 logical processors, using up to 32 threads

Academic license 656792 - for non-commercial use only - registered to b.___@student.vu.nl
Optimize a model with 21803 rows, 20185 columns and 78693 nonzeros
Model fingerprint: 0xd42ae634
Variable types: 1 continuous, 20184 integer (20184 binary)
Coefficient statistics:
  Matrix range     [1e+00, 4e+01]
  Objective range  [1e+00, 2e+01]
  Bounds range     [1e+00, 1e+00]
  RHS range        [1e+00, 1e+00]
Presolve removed 11195 rows and 10467 columns
Presolve time: 0.46s
Presolved: 10608 rows, 9718 columns, 37726 nonzeros
Variable types: 1 continuous, 9717 integer (9717 binary)
Found heuristic solution: objective 105.6753172

Root relaxation: objective 8.637337e+01, 2381 iterations, 0.09 seconds (0.06 work units)

    Nodes    |    Current Node    |     Objective Bounds      |     Work
 Expl Unexpl |  Obj  Depth IntInf | Incumbent    BestBd   Gap | It/Node Time

H    0     0                      86.3733695   82.15890  4.88%     -    0s
     0     0          -    0        86.37337   86.37337  0.00%     -    0s

Explored 1 nodes (3387 simplex iterations) in 0.66 seconds (0.45 work units)
Thread count was 32 (of 128 available processors)

Solution count 2: 86.3734 105.675 

Optimal solution found (tolerance 1.00e-04)
Best objective 8.637336954472e+01, best bound 8.637336954472e+01, gap 0.0000%
